Route #1: 7 16 24
Route #2: 14
Route #3: 29 36
Route #4: 13 26 21 9 33 5 1
Route #5: 6 20 19 31 34 17 4 18
Route #6: 27 25 35 32
Route #7: 8 3 2 28 23 22 12
Route #8: 15 30 11 10
cost: 1040.9833114940564
